HFSDDW
15	6	3
0	41	1	48	2	4
0	91	1	10	2	21
0	84	1	69	2	29
0	59	1	89	2	36
0	20	1	40	2	43
0	30	1	96	2	69
0	1	1	49	2	25
0	60	1	86	2	97
0	54	1	53	2	3
0	34	1	56	2	4
0	55	1	36	2	79
0	17	1	82	2	53
0	90	1	63	2	3
0	63	1	46	2	60
0	28	1	7	2	20
LBCmax: 427
RELDUE
-1	220	2	5
-1	421	2	3
-1	436	1	5
-1	238	6	1
-1	441	6	9
-1	427	4	4
-1	418	7	4
-1	408	1	6
-1	396	3	8
-1	435	7	5
-1	421	7	2
-1	372	3	7
-1	229	2	7
-1	310	6	1
-1	358	3	1
DDW
178	262
349	493
410	462
214	262
401	481
346	508
376	460
404	412
392	400
374	496
379	463
312	432
215	243
294	326
322	394
